dates = {'2022-03-04','2022-03-05','2022-03-06','2022-03-07','2022-03-08','2022-03-09','2022-03-10','2022-03-11','2022-03-12','2022-03-13','2022-03-14','2022-03-15','2022-03-16','2022-03-17','2022-03-18','2022-03-19','2022-03-20','2022-03-21','2022-03-22','2022-03-23','2022-03-24','2022-03-25','2022-03-26','2022-03-27','2022-03-28','2022-03-29','2022-03-30','2022-03-31','2022-04-01','2022-04-02'};

daysOfWeek = [Friday,Saturday,Sunday,Monday,Tuesday,Wednesday,Thursday,Friday,Saturday,Sunday,Monday,Tuesday,Wednesday,Thursday,Friday,Saturday,Sunday,Monday,Tuesday,Wednesday,Thursday,Friday,Saturday,Sunday,Monday,Tuesday,Wednesday,Thursday,Friday,Saturday];

% For this week, how many people will be here.
numPeople = [125,125,125,117,122,121,109,109,109,109,98,98,98,89,89,89,89,89
,89,89,89,89,89,89,89,89,89,89,89,89];

% Physical workers need 50 to 100 % more nutrients per day.
numPhysicalWorkers = [33.5,33.5,33.5,33.5,32.0,32.0,31.0,28.0,28.0,28.0,28.0,28.0,28.0,28.0
,21.0,21.0,21.0,21.0,21.0,21.0,21.0,21.0,21.0,21.0,21.0,21.0,21.0,21.0
,21.0,21.0];

% Males need +25% more nutrients per day.
numMen = [100,100,100,100,100,100,99,90,90,90,90,80,80,80,75,75,75,75
,75,75,75,75,75,75,75,75,75,75,75,75];

% Num people who do not eat categories. contains = {none, meat, milk, gluten, egg, nut, seed, sugars}
numRefusals = [| 0,13,1,11,1,0,0,17 | 0,13,1,11,1,0,0,17 | 0,13,1,11,1,0,0,17 | 0,2,1,0,0,0,0,0 | 0,0,0,27,12,22,0,4 | 0,0,0,0,9,0,9,0 | 0,0,0,0,0,11,31,5 | 0,0,0,0,0,11,31,5 | 0,0,0,0,0,11,31,5 | 0,0,0,0,0,11,31,5 | 0,0,0,0,3,7,15,0 | 0,0,0,0,3,7,15,0 | 0,0,0,0,3,7,15,0 | 0,0,2,0,5,0,0,0 | 0,0,2,0,5,0,0,0 | 0,0,2,0,5,0,0,0 | 0,0,2,0,5,0,0,0 | 0,0,2,0,5,0,0,0 | 0,0,2,0,5,0,0,0 | 0,0,2,0,5,0,0,0 | 0,0,2,0,5,0,0,0 | 0,0,2,0,5,0,0,0 | 0,0,2,0,5,0,0,0 | 0,0,2,0,5,0,0,0 | 0,0,2,0,5,0,0,0 | 0,0,2,0,5,0,0,0 | 0,0,2,0,5,0,0,0 | 0,0,2,0,5,0,0,0 | 0,0,2,0,5,0,0,0 | 0,0,2,0,5,0,0,0 |];

